NAME : tsp_31_sol.txt
COMMENT : OR-Tools Guided Local Search
TYPE : TOUR
DIMENSION : 50
COST : 4937
STATUS : ROUTING_SUCCESS
GAP : 0.00% (Reference Solution)
TOUR_SECTION
1
35
48
5
26
22
27
4
21
23
8
12
43
30
41
18
50
25
39
6
37
49
19
13
44
36
24
20
9
42
16
33
47
32
10
29
17
31
38
40
11
46
3
34
7
15
2
45
28
14
-1
